housing
unit
the
that
with
a
is
of
posted
units
private
123
sesame
what
street
2
which
on
square
in
800
rent
january
feet
find
has
or
1500
apartments
than
midtown
west
and
apartment
room
neighborhood
bath
dollars
as
was
two
neighborhoods
same
at
cats
type
jan
are
dogs
allows
kind
for
area
monthly
more
size
types
least
less
month
an
date
most
1000
have
2nd
show
before
posting
me
friendly
foot
permits
available
not
bathroom
1500month
to
allow
february
per
between
how
3
all
2000
where
after
around
dogfriendly
houses
it
900
mission
number
catfriendly
bigger
day
near
pet
includes
cat
smaller
kinds
larger
costs
found
looking
facility
list
average
rental
lesser
other
ave
either
cheaper
no
many
smallest
charges
master
resembles
st
rents
expensive
chelsea
name
2000month
condo
quiet
baths
house
inside
one
by
places
dog
3rd
minimum
amount
largest
east
also
price
offers
allowed
like
avenue
below
seeking
cheapest
space
this
maximum
similar
large
footage
allowing
sized
there
charge
earlier
latest
neighbourhood
fewest
much
priced
bedroom
dollar
housings
permit
those
contains
dates
fewer
did
variety
big
greater
only
sq
exclude
15002000
belong
located
later
isnt
1500monthly
rentals
twohouse
complexes
from
over
welcome
building
any
feb
above
equal
different
does
whose
under
were
lately
accepts
had
highest
both
123sesame
outsizing
ranges
except
renting
specify
pets
detached
its
fee
numerous
become
do
aparartment
orivate
typical
nieghborhoods
acceptable
phone
complex
rarest
surrounding
fora
unti
chagres
priiiiiiat
sesamre
locate
roombath
twohousing
bah
using
far
aprtment
shared
nuumber
belongs
troom
rare
mostused
consists
us
rooms
within
mid
town
when
condominium
unis
medtown
condos
want
small
2s
just
higher
then
recently
arent
unique
common
areas
biggest
i
can
compare
permitted
provides
costing
listed
post
neighbourhoods
cost
beetween
count
city
townhouse
been
who
others
sizes
condomonium
flat
satisfies
called
food
total
three
include
ft
need
